language Essence 1.3

letting codeWordLength be 10
letting dist be
        function((1, 1) --> 0, (1, 2) --> 2, (1, 3) --> 0, (1, 4) --> 2, (1, 5) --> 3, (1, 6) --> 2, (1, 7) --> 0,
                 (1, 8) --> 0, (1, 9) --> 0, (1, 10) --> 0, (1, 11) --> 2, (2, 1) --> 2, (2, 2) --> 0, (2, 3) --> 3,
                 (2, 4) --> 3, (2, 5) --> 0, (2, 6) --> 3, (2, 7) --> 0, (2, 8) --> 3, (2, 9) --> 0, (2, 10) --> 1,
                 (2, 11) --> 0, (3, 1) --> 0, (3, 2) --> 3, (3, 3) --> 0, (3, 4) --> 2, (3, 5) --> 1, (3, 6) --> 1,
                 (3, 7) --> 2, (3, 8) --> 1, (3, 9) --> 1, (3, 10) --> 2, (3, 11) --> 1, (4, 1) --> 2, (4, 2) --> 3,
                 (4, 3) --> 2, (4, 4) --> 0, (4, 5) --> 2, (4, 6) --> 0, (4, 7) --> 2, (4, 8) --> 1, (4, 9) --> 0,
                 (4, 10) --> 3, (4, 11) --> 2, (5, 1) --> 3, (5, 2) --> 0, (5, 3) --> 1, (5, 4) --> 2, (5, 5) --> 0,
                 (5, 6) --> 1, (5, 7) --> 0, (5, 8) --> 2, (5, 9) --> 2, (5, 10) --> 0, (5, 11) --> 3, (6, 1) --> 2,
                 (6, 2) --> 3, (6, 3) --> 1, (6, 4) --> 0, (6, 5) --> 1, (6, 6) --> 0, (6, 7) --> 0, (6, 8) --> 0,
                 (6, 9) --> 0, (6, 10) --> 1, (6, 11) --> 0, (7, 1) --> 0, (7, 2) --> 0, (7, 3) --> 2, (7, 4) --> 2,
                 (7, 5) --> 0, (7, 6) --> 0, (7, 7) --> 0, (7, 8) --> 2, (7, 9) --> 1, (7, 10) --> 0, (7, 11) --> 3,
                 (8, 1) --> 0, (8, 2) --> 3, (8, 3) --> 1, (8, 4) --> 1, (8, 5) --> 2, (8, 6) --> 0, (8, 7) --> 2,
                 (8, 8) --> 0, (8, 9) --> 0, (8, 10) --> 3, (8, 11) --> 0, (9, 1) --> 0, (9, 2) --> 0, (9, 3) --> 1,
                 (9, 4) --> 0, (9, 5) --> 2, (9, 6) --> 0, (9, 7) --> 1, (9, 8) --> 0, (9, 9) --> 0, (9, 10) --> 0,
                 (9, 11) --> 0, (10, 1) --> 0, (10, 2) --> 1, (10, 3) --> 2, (10, 4) --> 3, (10, 5) --> 0,
                 (10, 6) --> 1, (10, 7) --> 0, (10, 8) --> 3, (10, 9) --> 0, (10, 10) --> 0, (10, 11) --> 3,
                 (11, 1) --> 2, (11, 2) --> 0, (11, 3) --> 1, (11, 4) --> 2, (11, 5) --> 3, (11, 6) --> 0,
                 (11, 7) --> 3, (11, 8) --> 0, (11, 9) --> 0, (11, 10) --> 3, (11, 11) --> 0)
letting maxDist be 8
letting minDist be 3
letting nbCharacter be 11
letting numOfCodeWords be 36
